p cnf 114 778
1 2 3 4 5 6 7 8 0
9 10 11 12 13 14 15 16 0
17 18 19 20 21 22 23 24 0
25 26 27 28 29 30 31 32 0
33 34 35 36 37 38 39 40 0
41 42 43 44 45 46 47 48 0
49 50 51 52 53 54 55 56 0
57 58 59 60 61 62 63 64 0
65 66 67 68 69 70 71 0
72 73 74 75 76 77 78 0
79 80 81 82 83 84 85 0
86 87 88 89 90 91 92 0
93 94 95 96 97 98 99 0
100 101 102 103 104 105 106 0
107 108 109 110 111 112 113 0
-1 -9 0
-2 -10 0
-3 -11 0
-4 -12 0
-5 -13 0
-6 -14 0
-7 -15 0
-8 -16 0
-1 -17 0
-2 -18 0
-3 -19 0
-4 -20 0
-5 -21 0
-6 -22 0
-7 -23 0
-8 -24 0
-1 -25 0
-2 -26 0
-3 -27 0
-4 -28 0
-5 -29 0
-6 -30 0
-7 -31 0
-8 -32 0
-1 -33 0
-2 -34 0
-3 -35 0
-4 -36 0
-5 -37 0
-6 -38 0
-7 -39 0
-8 -40 0
-1 -41 0
-2 -42 0
-3 -43 0
-4 -44 0
-5 -45 0
-6 -46 0
-7 -47 0
-8 -48 0
-1 -49 0
-2 -50 0
-3 -51 0
-4 -52 0
-5 -53 0
-6 -54 0
-7 -55 0
-8 -56 0
-1 -57 0
-2 -58 0
-3 -59 0
-4 -60 0
-5 -61 0
-6 -62 0
-7 -63 0
-8 -64 0
-9 -17 0
-10 -18 0
-11 -19 0
-12 -20 0
-13 -21 0
-14 -22 0
-15 -23 0
-16 -24 0
-9 -25 0
-10 -26 0
-11 -27 0
-12 -28 0
-13 -29 0
-14 -30 0
-15 -31 0
-16 -32 0
-9 -33 0
-10 -34 0
-11 -35 0
-12 -36 0
-13 -37 0
-14 -38 0
-15 -39 0
-16 -40 0
-9 -41 0
-10 -42 0
-11 -43 0
-12 -44 0
-13 -45 0
-14 -46 0
-15 -47 0
-16 -48 0
-9 -49 0
-10 -50 0
-11 -51 0
-12 -52 0
-13 -53 0
-14 -54 0
-15 -55 0
-16 -56 0
-9 -57 0
-10 -58 0
-11 -59 0
-12 -60 0
-13 -61 0
-14 -62 0
-15 -63 0
-16 -64 0
-17 -25 0
-18 -26 0
-19 -27 0
-20 -28 0
-21 -29 0
-22 -30 0
-23 -31 0
-24 -32 0
-17 -33 0
-18 -34 0
-19 -35 0
-20 -36 0
-21 -37 0
-22 -38 0
-23 -39 0
-24 -40 0
-17 -41 0
-18 -42 0
-19 -43 0
-20 -44 0
-21 -45 0
-22 -46 0
-23 -47 0
-24 -48 0
-17 -49 0
-18 -50 0
-19 -51 0
-20 -52 0
-21 -53 0
-22 -54 0
-23 -55 0
-24 -56 0
-17 -57 0
-18 -58 0
-19 -59 0
-20 -60 0
-21 -61 0
-22 -62 0
-23 -63 0
-24 -64 0
-25 -33 0
-26 -34 0
-27 -35 0
-28 -36 0
-29 -37 0
-30 -38 0
-31 -39 0
-32 -40 0
-25 -41 0
-26 -42 0
-27 -43 0
-28 -44 0
-29 -45 0
-30 -46 0
-31 -47 0
-32 -48 0
-25 -49 0
-26 -50 0
-27 -51 0
-28 -52 0
-29 -53 0
-30 -54 0
-31 -55 0
-32 -56 0
-25 -57 0
-26 -58 0
-27 -59 0
-28 -60 0
-29 -61 0
-30 -62 0
-31 -63 0
-32 -64 0
-33 -41 0
-34 -42 0
-35 -43 0
-36 -44 0
-37 -45 0
-38 -46 0
-39 -47 0
-40 -48 0
-33 -49 0
-34 -50 0
-35 -51 0
-36 -52 0
-37 -53 0
-38 -54 0
-39 -55 0
-40 -56 0
-33 -57 0
-34 -58 0
-35 -59 0
-36 -60 0
-37 -61 0
-38 -62 0
-39 -63 0
-40 -64 0
-41 -49 0
-42 -50 0
-43 -51 0
-44 -52 0
-45 -53 0
-46 -54 0
-47 -55 0
-48 -56 0
-41 -57 0
-42 -58 0
-43 -59 0
-44 -60 0
-45 -61 0
-46 -62 0
-47 -63 0
-48 -64 0
-49 -57 0
-50 -58 0
-51 -59 0
-52 -60 0
-53 -61 0
-54 -62 0
-55 -63 0
-56 -64 0
-65 -72 0
-66 -73 0
-67 -74 0
-68 -75 0
-69 -76 0
-70 -77 0
-71 -78 0
-65 -79 0
-66 -80 0
-67 -81 0
-68 -82 0
-69 -83 0
-70 -84 0
-71 -85 0
-65 -86 0
-66 -87 0
-67 -88 0
-68 -89 0
-69 -90 0
-70 -91 0
-71 -92 0
-65 -93 0
-66 -94 0
-67 -95 0
-68 -96 0
-69 -97 0
-70 -98 0
-71 -99 0
-65 -100 0
-66 -101 0
-67 -102 0
-68 -103 0
-69 -104 0
-70 -105 0
-71 -106 0
-65 -107 0
-66 -108 0
-67 -109 0
-68 -110 0
-69 -111 0
-70 -112 0
-71 -113 0
-72 -79 0
-73 -80 0
-74 -81 0
-75 -82 0
-76 -83 0
-77 -84 0
-78 -85 0
-72 -86 0
-73 -87 0
-74 -88 0
-75 -89 0
-76 -90 0
-77 -91 0
-78 -92 0
-72 -93 0
-73 -94 0
-74 -95 0
-75 -96 0
-76 -97 0
-77 -98 0
-78 -99 0
-72 -100 0
-73 -101 0
-74 -102 0
-75 -103 0
-76 -104 0
-77 -105 0
-78 -106 0
-72 -107 0
-73 -108 0
-74 -109 0
-75 -110 0
-76 -111 0
-77 -112 0
-78 -113 0
-79 -86 0
-80 -87 0
-81 -88 0
-82 -89 0
-83 -90 0
-84 -91 0
-85 -92 0
-79 -93 0
-80 -94 0
-81 -95 0
-82 -96 0
-83 -97 0
-84 -98 0
-85 -99 0
-79 -100 0
-80 -101 0
-81 -102 0
-82 -103 0
-83 -104 0
-84 -105 0
-85 -106 0
-79 -107 0
-80 -108 0
-81 -109 0
-82 -110 0
-83 -111 0
-84 -112 0
-85 -113 0
-86 -93 0
-87 -94 0
-88 -95 0
-89 -96 0
-90 -97 0
-91 -98 0
-92 -99 0
-86 -100 0
-87 -101 0
-88 -102 0
-89 -103 0
-90 -104 0
-91 -105 0
-92 -106 0
-86 -107 0
-87 -108 0
-88 -109 0
-89 -110 0
-90 -111 0
-91 -112 0
-92 -113 0
-93 -100 0
-94 -101 0
-95 -102 0
-96 -103 0
-97 -104 0
-98 -105 0
-99 -106 0
-93 -107 0
-94 -108 0
-95 -109 0
-96 -110 0
-97 -111 0
-98 -112 0
-99 -113 0
-100 -107 0
-101 -108 0
-102 -109 0
-103 -110 0
-104 -111 0
-105 -112 0
-106 -113 0
-1 -10 65 0
-1 -11 66 0
-1 -12 67 0
-1 -13 68 0
-1 -14 69 0
-1 -15 70 0
-1 -16 71 0
-2 -9 65 0
-2 -11 65 0
-2 -12 66 0
-2 -13 67 0
-2 -14 68 0
-2 -15 69 0
-2 -16 70 0
-3 -9 66 0
-3 -10 65 0
-3 -12 65 0
-3 -13 66 0
-3 -14 67 0
-3 -15 68 0
-3 -16 69 0
-4 -9 67 0
-4 -10 66 0
-4 -11 65 0
-4 -13 65 0
-4 -14 66 0
-4 -15 67 0
-4 -16 68 0
-5 -9 68 0
-5 -10 67 0
-5 -11 66 0
-5 -12 65 0
-5 -14 65 0
-5 -15 66 0
-5 -16 67 0
-6 -9 69 0
-6 -10 68 0
-6 -11 67 0
-6 -12 66 0
-6 -13 65 0
-6 -15 65 0
-6 -16 66 0
-7 -9 70 0
-7 -10 69 0
-7 -11 68 0
-7 -12 67 0
-7 -13 66 0
-7 -14 65 0
-7 -16 65 0
-8 -9 71 0
-8 -10 70 0
-8 -11 69 0
-8 -12 68 0
-8 -13 67 0
-8 -14 66 0
-8 -15 65 0
-9 -18 72 0
-9 -19 73 0
-9 -20 74 0
-9 -21 75 0
-9 -22 76 0
-9 -23 77 0
-9 -24 78 0
-10 -17 72 0
-10 -19 72 0
-10 -20 73 0
-10 -21 74 0
-10 -22 75 0
-10 -23 76 0
-10 -24 77 0
-11 -17 73 0
-11 -18 72 0
-11 -20 72 0
-11 -21 73 0
-11 -22 74 0
-11 -23 75 0
-11 -24 76 0
-12 -17 74 0
-12 -18 73 0
-12 -19 72 0
-12 -21 72 0
-12 -22 73 0
-12 -23 74 0
-12 -24 75 0
-13 -17 75 0
-13 -18 74 0
-13 -19 73 0
-13 -20 72 0
-13 -22 72 0
-13 -23 73 0
-13 -24 74 0
-14 -17 76 0
-14 -18 75 0
-14 -19 74 0
-14 -20 73 0
-14 -21 72 0
-14 -23 72 0
-14 -24 73 0
-15 -17 77 0
-15 -18 76 0
-15 -19 75 0
-15 -20 74 0
-15 -21 73 0
-15 -22 72 0
-15 -24 72 0
-16 -17 78 0
-16 -18 77 0
-16 -19 76 0
-16 -20 75 0
-16 -21 74 0
-16 -22 73 0
-16 -23 72 0
-17 -26 79 0
-17 -27 80 0
-17 -28 81 0
-17 -29 82 0
-17 -30 83 0
-17 -31 84 0
-17 -32 85 0
-18 -25 79 0
-18 -27 79 0
-18 -28 80 0
-18 -29 81 0
-18 -30 82 0
-18 -31 83 0
-18 -32 84 0
-19 -25 80 0
-19 -26 79 0
-19 -28 79 0
-19 -29 80 0
-19 -30 81 0
-19 -31 82 0
-19 -32 83 0
-20 -25 81 0
-20 -26 80 0
-20 -27 79 0
-20 -29 79 0
-20 -30 80 0
-20 -31 81 0
-20 -32 82 0
-21 -25 82 0
-21 -26 81 0
-21 -27 80 0
-21 -28 79 0
-21 -30 79 0
-21 -31 80 0
-21 -32 81 0
-22 -25 83 0
-22 -26 82 0
-22 -27 81 0
-22 -28 80 0
-22 -29 79 0
-22 -31 79 0
-22 -32 80 0
-23 -25 84 0
-23 -26 83 0
-23 -27 82 0
-23 -28 81 0
-23 -29 80 0
-23 -30 79 0
-23 -32 79 0
-24 -25 85 0
-24 -26 84 0
-24 -27 83 0
-24 -28 82 0
-24 -29 81 0
-24 -30 80 0
-24 -31 79 0
-25 -34 86 0
-25 -35 87 0
-25 -36 88 0
-25 -37 89 0
-25 -38 90 0
-25 -39 91 0
-25 -40 92 0
-26 -33 86 0
-26 -35 86 0
-26 -36 87 0
-26 -37 88 0
-26 -38 89 0
-26 -39 90 0
-26 -40 91 0
-27 -33 87 0
-27 -34 86 0
-27 -36 86 0
-27 -37 87 0
-27 -38 88 0
-27 -39 89 0
-27 -40 90 0
-28 -33 88 0
-28 -34 87 0
-28 -35 86 0
-28 -37 86 0
-28 -38 87 0
-28 -39 88 0
-28 -40 89 0
-29 -33 89 0
-29 -34 88 0
-29 -35 87 0
-29 -36 86 0
-29 -38 86 0
-29 -39 87 0
-29 -40 88 0
-30 -33 90 0
-30 -34 89 0
-30 -35 88 0
-30 -36 87 0
-30 -37 86 0
-30 -39 86 0
-30 -40 87 0
-31 -33 91 0
-31 -34 90 0
-31 -35 89 0
-31 -36 88 0
-31 -37 87 0
-31 -38 86 0
-31 -40 86 0
-32 -33 92 0
-32 -34 91 0
-32 -35 90 0
-32 -36 89 0
-32 -37 88 0
-32 -38 87 0
-32 -39 86 0
-33 -42 93 0
-33 -43 94 0
-33 -44 95 0
-33 -45 96 0
-33 -46 97 0
-33 -47 98 0
-33 -48 99 0
-34 -41 93 0
-34 -43 93 0
-34 -44 94 0
-34 -45 95 0
-34 -46 96 0
-34 -47 97 0
-34 -48 98 0
-35 -41 94 0
-35 -42 93 0
-35 -44 93 0
-35 -45 94 0
-35 -46 95 0
-35 -47 96 0
-35 -48 97 0
-36 -41 95 0
-36 -42 94 0
-36 -43 93 0
-36 -45 93 0
-36 -46 94 0
-36 -47 95 0
-36 -48 96 0
-37 -41 96 0
-37 -42 95 0
-37 -43 94 0
-37 -44 93 0
-37 -46 93 0
-37 -47 94 0
-37 -48 95 0
-38 -41 97 0
-38 -42 96 0
-38 -43 95 0
-38 -44 94 0
-38 -45 93 0
-38 -47 93 0
-38 -48 94 0
-39 -41 98 0
-39 -42 97 0
-39 -43 96 0
-39 -44 95 0
-39 -45 94 0
-39 -46 93 0
-39 -48 93 0
-40 -41 99 0
-40 -42 98 0
-40 -43 97 0
-40 -44 96 0
-40 -45 95 0
-40 -46 94 0
-40 -47 93 0
-41 -50 100 0
-41 -51 101 0
-41 -52 102 0
-41 -53 103 0
-41 -54 104 0
-41 -55 105 0
-41 -56 106 0
-42 -49 100 0
-42 -51 100 0
-42 -52 101 0
-42 -53 102 0
-42 -54 103 0
-42 -55 104 0
-42 -56 105 0
-43 -49 101 0
-43 -50 100 0
-43 -52 100 0
-43 -53 101 0
-43 -54 102 0
-43 -55 103 0
-43 -56 104 0
-44 -49 102 0
-44 -50 101 0
-44 -51 100 0
-44 -53 100 0
-44 -54 101 0
-44 -55 102 0
-44 -56 103 0
-45 -49 103 0
-45 -50 102 0
-45 -51 101 0
-45 -52 100 0
-45 -54 100 0
-45 -55 101 0
-45 -56 102 0
-46 -49 104 0
-46 -50 103 0
-46 -51 102 0
-46 -52 101 0
-46 -53 100 0
-46 -55 100 0
-46 -56 101 0
-47 -49 105 0
-47 -50 104 0
-47 -51 103 0
-47 -52 102 0
-47 -53 101 0
-47 -54 100 0
-47 -56 100 0
-48 -49 106 0
-48 -50 105 0
-48 -51 104 0
-48 -52 103 0
-48 -53 102 0
-48 -54 101 0
-48 -55 100 0
-49 -58 107 0
-49 -59 108 0
-49 -60 109 0
-49 -61 110 0
-49 -62 111 0
-49 -63 112 0
-49 -64 113 0
-50 -57 107 0
-50 -59 107 0
-50 -60 108 0
-50 -61 109 0
-50 -62 110 0
-50 -63 111 0
-50 -64 112 0
-51 -57 108 0
-51 -58 107 0
-51 -60 107 0
-51 -61 108 0
-51 -62 109 0
-51 -63 110 0
-51 -64 111 0
-52 -57 109 0
-52 -58 108 0
-52 -59 107 0
-52 -61 107 0
-52 -62 108 0
-52 -63 109 0
-52 -64 110 0
-53 -57 110 0
-53 -58 109 0
-53 -59 108 0
-53 -60 107 0
-53 -62 107 0
-53 -63 108 0
-53 -64 109 0
-54 -57 111 0
-54 -58 110 0
-54 -59 109 0
-54 -60 108 0
-54 -61 107 0
-54 -63 107 0
-54 -64 108 0
-55 -57 112 0
-55 -58 111 0
-55 -59 110 0
-55 -60 109 0
-55 -61 108 0
-55 -62 107 0
-55 -64 107 0
-56 -57 113 0
-56 -58 112 0
-56 -59 111 0
-56 -60 110 0
-56 -61 109 0
-56 -62 108 0
-56 -63 107 0
